56 56
20 20
11 44
24 42
20 5
22 28
21 23
4 19
3 49
17 37
9 11
28 6
13 13
27 24
23 38
26 16
25 55
10 33
16 41
15 30
5 9
19 51
2 4
13 12
21 8
10 36
8 27
25 50
19 1
7 29
9 22
2 48
4 25
12 31
6 21
28 18
14 39
24 15
12 7
22 40
6 14
16 56
17 47
8 10
1 32
15 2
11 53
23 43
5 54
7 45
3 35
18 46
27 52
18 17
1 3
14 26
26 34
